instance/prob18/dzn/prob18_q1.dzn
n_states = 15;
input_max = 15;
% initial_state = 1;
accepting_states = {15};
% transition_fn = array2d(1..n_states, 1..n_states,
% [%1  2  3  4  5  6  7  8  9 10 11 12 13 14 15
%   0, 2, 0, 0, 0, 0, 0, 0, 9, 0, 0, 0, 0, 0, 0, % 1
%   0, 0, 3, 0, 0, 0, 0, 0, 0, 0, 0, 0, 0, 0, 0, % 2 
%   0, 0, 0, 4, 0, 0, 0, 0, 9, 0, 0, 0, 0, 0, 0, % 3
%   0, 0, 0, 0, 5, 0, 0, 0, 0, 0, 0, 0, 0, 0, 0, % 4
%   0, 0, 0, 0, 0, 6, 0, 0, 9, 0, 0, 0, 0, 0, 0, % 5
%   0, 0, 0, 0, 0, 0, 7, 0, 0, 0, 0, 0, 0, 0, 0, % 6
%   0, 0, 0, 0, 0, 0, 0, 8, 9, 0, 0, 0, 0, 0, 0, % 7
%   0, 0, 0, 0, 0, 0, 0, 0, 0, 0, 0, 0, 0, 0,15, % 8 
%   0, 0, 0, 0, 0, 0, 0, 0, 0,10, 0, 0, 0, 0, 0, % 9
%   0, 2, 0, 0, 0, 0, 0, 0, 0, 0,11, 0, 0, 0, 0, %10
%   0, 0, 0, 0, 0, 0, 0, 0, 0, 0, 0,12, 0, 0, 0, %11 
%   0, 2, 0, 0, 0, 0, 0, 0, 0, 0, 0, 0,13, 0, 0, %12
%   0, 0, 0, 0, 0, 0, 0, 0, 0, 0, 0, 0, 0,14, 0, %13 
%   0, 2, 0, 0, 0, 0, 0, 0, 0, 0, 0, 0, 0, 0,15, %14
%   0, 0, 0, 0, 0, 0, 0, 0, 0, 0, 0, 0, 0, 0,15, %15
% ]);

%                 1  2  3  4  5  6  7  8  9 10 11 12 13 14 15
transition_fn = [|0, 2, 0, 0, 0, 0, 0, 0, 9, 0, 0, 0, 0, 0, 0| % 1
                  0, 0, 3, 0, 0, 0, 0, 0, 0, 0, 0, 0, 0, 0, 0| % 2 
                  0, 0, 0, 4, 0, 0, 0, 0, 9, 0, 0, 0, 0, 0, 0| % 3
                  0, 0, 0, 0, 5, 0, 0, 0, 0, 0, 0, 0, 0, 0, 0| % 4
                  0, 0, 0, 0, 0, 6, 0, 0, 9, 0, 0, 0, 0, 0, 0| % 5
                  0, 0, 0, 0, 0, 0, 7, 0, 0, 0, 0, 0, 0, 0, 0| % 6
                  0, 0, 0, 0, 0, 0, 0, 8, 9, 0, 0, 0, 0, 0, 0| % 7
                  0, 0, 0, 0, 0, 0, 0, 0, 0, 0, 0, 0, 0, 0,15| % 8 
                  0, 0, 0, 0, 0, 0, 0, 0, 0,10, 0, 0, 0, 0, 0| % 9
                  0, 2, 0, 0, 0, 0, 0, 0, 0, 0,11, 0, 0, 0, 0| %10
                  0, 0, 0, 0, 0, 0, 0, 0, 0, 0, 0,12, 0, 0, 0| %11 
                  0, 2, 0, 0, 0, 0, 0, 0, 0, 0, 0, 0,13, 0, 0| %12
                  0, 0, 0, 0, 0, 0, 0, 0, 0, 0, 0, 0, 0,14, 0| %13 
                  0, 2, 0, 0, 0, 0, 0, 0, 0, 0, 0, 0, 0, 0,15| %14
                  0, 0, 0, 0, 0, 0, 0, 0, 0, 0, 0, 0, 0, 0,15|]; %15



nodes = [
        "8,0,0", % 1 start
        "5,0,3", % 2
        "5,3,0", % 3 
        "2,3,3", % 4 
        "2,5,1", % 5
        "7,0,1", % 6
        "7,1,0", % 7
        "4,1,3", % 8
        "3,5,0", % 9
        "3,2,3", % 10
        "6,2,0", % 11
        "6,0,2", % 12
        "1,5,2", % 13
        "1,4,3", % 14
        "4,4,0"  % 15 goal
        ];